NAME : circle16
TYPE : TSP
COMMENT : 16-city circle 
DIMENSION : 16
EDGE_WEIGHT_TYPE : ATT
NODE_COORD_SECTION
1 6 1
2 8 2
3 9 3
4 10 5
5 10 6
6 9 8
7 8 9
8 6 10
9 5 10
10 3 9
11 2 8
12 1 6
13 1 5
14 2 3
15 3 2
16 5 1
 
